p cnf 65 525
-1 -7 0
-1 -8 0
-1 -9 0
-1 -10 0
-2 -6 0
-2 -8 0
-2 -9 0
-2 -10 0
-3 -6 0
-3 -7 0
-3 -9 0
-3 -10 0
-4 -6 0
-4 -7 0
-4 -8 0
-4 -10 0
-5 -6 0
-5 -7 0
-5 -8 0
-5 -9 0
-1 -12 0
-1 -13 0
-1 -14 0
-1 -15 0
-2 -11 0
-2 -13 0
-2 -14 0
-2 -15 0
-3 -11 0
-3 -12 0
-3 -14 0
-3 -15 0
-4 -11 0
-4 -12 0
-4 -13 0
-4 -15 0
-5 -11 0
-5 -12 0
-5 -13 0
-5 -14 0
-1 -17 0
-1 -18 0
-1 -19 0
-1 -20 0
-2 -16 0
-2 -18 0
-2 -19 0
-2 -20 0
-3 -16 0
-3 -17 0
-3 -19 0
-3 -20 0
-4 -16 0
-4 -17 0
-4 -18 0
-4 -20 0
-5 -16 0
-5 -17 0
-5 -18 0
-5 -19 0
-1 -22 0
-1 -23 0
-1 -24 0
-1 -25 0
-2 -21 0
-2 -23 0
-2 -24 0
-2 -25 0
-3 -21 0
-3 -22 0
-3 -24 0
-3 -25 0
-4 -21 0
-4 -22 0
-4 -23 0
-4 -25 0
-5 -21 0
-5 -22 0
-5 -23 0
-5 -24 0
-1 -27 0
-1 -28 0
-1 -29 0
-1 -30 0
-2 -26 0
-2 -28 0
-2 -29 0
-2 -30 0
-3 -26 0
-3 -27 0
-3 -29 0
-3 -30 0
-4 -26 0
-4 -27 0
-4 -28 0
-4 -30 0
-5 -26 0
-5 -27 0
-5 -28 0
-5 -29 0
-1 -32 0
-1 -33 0
-1 -34 0
-1 -35 0
-2 -31 0
-2 -33 0
-2 -34 0
-2 -35 0
-3 -31 0
-3 -32 0
-3 -34 0
-3 -35 0
-4 -31 0
-4 -32 0
-4 -33 0
-4 -35 0
-5 -31 0
-5 -32 0
-5 -33 0
-5 -34 0
-1 -37 0
-1 -38 0
-1 -39 0
-1 -40 0
-2 -36 0
-2 -38 0
-2 -39 0
-2 -40 0
-3 -36 0
-3 -37 0
-3 -39 0
-3 -40 0
-4 -36 0
-4 -37 0
-4 -38 0
-4 -40 0
-5 -36 0
-5 -37 0
-5 -38 0
-5 -39 0
-6 -12 0
-6 -13 0
-6 -14 0
-6 -15 0
-7 -11 0
-7 -13 0
-7 -14 0
-7 -15 0
-8 -11 0
-8 -12 0
-8 -14 0
-8 -15 0
-9 -11 0
-9 -12 0
-9 -13 0
-9 -15 0
-10 -11 0
-10 -12 0
-10 -13 0
-10 -14 0
-11 -17 0
-11 -18 0
-11 -19 0
-11 -20 0
-12 -16 0
-12 -18 0
-12 -19 0
-12 -20 0
-13 -16 0
-13 -17 0
-13 -19 0
-13 -20 0
-14 -16 0
-14 -17 0
-14 -18 0
-14 -20 0
-15 -16 0
-15 -17 0
-15 -18 0
-15 -19 0
-11 -32 0
-11 -33 0
-11 -34 0
-11 -35 0
-12 -31 0
-12 -33 0
-12 -34 0
-12 -35 0
-13 -31 0
-13 -32 0
-13 -34 0
-13 -35 0
-14 -31 0
-14 -32 0
-14 -33 0
-14 -35 0
-15 -31 0
-15 -32 0
-15 -33 0
-15 -34 0
-11 -37 0
-11 -38 0
-11 -39 0
-11 -40 0
-12 -36 0
-12 -38 0
-12 -39 0
-12 -40 0
-13 -36 0
-13 -37 0
-13 -39 0
-13 -40 0
-14 -36 0
-14 -37 0
-14 -38 0
-14 -40 0
-15 -36 0
-15 -37 0
-15 -38 0
-15 -39 0
-16 -32 0
-16 -33 0
-16 -34 0
-16 -35 0
-17 -31 0
-17 -33 0
-17 -34 0
-17 -35 0
-18 -31 0
-18 -32 0
-18 -34 0
-18 -35 0
-19 -31 0
-19 -32 0
-19 -33 0
-19 -35 0
-20 -31 0
-20 -32 0
-20 -33 0
-20 -34 0
-21 -27 0
-21 -28 0
-21 -29 0
-21 -30 0
-22 -26 0
-22 -28 0
-22 -29 0
-22 -30 0
-23 -26 0
-23 -27 0
-23 -29 0
-23 -30 0
-24 -26 0
-24 -27 0
-24 -28 0
-24 -30 0
-25 -26 0
-25 -27 0
-25 -28 0
-25 -29 0
-21 -32 0
-21 -33 0
-21 -34 0
-21 -35 0
-22 -31 0
-22 -33 0
-22 -34 0
-22 -35 0
-23 -31 0
-23 -32 0
-23 -34 0
-23 -35 0
-24 -31 0
-24 -32 0
-24 -33 0
-24 -35 0
-25 -31 0
-25 -32 0
-25 -33 0
-25 -34 0
-21 -37 0
-21 -38 0
-21 -39 0
-21 -40 0
-22 -36 0
-22 -38 0
-22 -39 0
-22 -40 0
-23 -36 0
-23 -37 0
-23 -39 0
-23 -40 0
-24 -36 0
-24 -37 0
-24 -38 0
-24 -40 0
-25 -36 0
-25 -37 0
-25 -38 0
-25 -39 0
1 6 11 16 21 26 31 36 0 
2 7 12 17 22 27 32 37 0 
3 8 13 18 23 28 33 38 0 
4 9 14 19 24 29 34 39 0 
5 10 15 20 25 30 35 40 0 
-2 -1 0
-3 -1 0
-4 -1 0
-5 -1 0
-3 -2 0
-4 -2 0
-5 -2 0
-4 -3 0
-5 -3 0
-5 -4 0
-7 -6 0
-8 -6 0
-9 -6 0
-10 -6 0
-8 -7 0
-9 -7 0
-10 -7 0
-9 -8 0
-10 -8 0
-10 -9 0
-12 -11 0
-13 -11 0
-14 -11 0
-15 -11 0
-13 -12 0
-14 -12 0
-15 -12 0
-14 -13 0
-15 -13 0
-15 -14 0
-17 -16 0
-18 -16 0
-19 -16 0
-20 -16 0
-18 -17 0
-19 -17 0
-20 -17 0
-19 -18 0
-20 -18 0
-20 -19 0
-22 -21 0
-23 -21 0
-24 -21 0
-25 -21 0
-23 -22 0
-24 -22 0
-25 -22 0
-24 -23 0
-25 -23 0
-25 -24 0
-27 -26 0
-28 -26 0
-29 -26 0
-30 -26 0
-28 -27 0
-29 -27 0
-30 -27 0
-29 -28 0
-30 -28 0
-30 -29 0
-32 -31 0
-33 -31 0
-34 -31 0
-35 -31 0
-33 -32 0
-34 -32 0
-35 -32 0
-34 -33 0
-35 -33 0
-35 -34 0
-37 -36 0
-38 -36 0
-39 -36 0
-40 -36 0
-38 -37 0
-39 -37 0
-40 -37 0
-39 -38 0
-40 -38 0
-40 -39 0
-1 -6 0
-2 -7 0
-3 -8 0
-4 -9 0
-5 -10 0
-1 -11 0
-2 -12 0
-3 -13 0
-4 -14 0
-5 -15 0
-1 -16 0
-2 -17 0
-3 -18 0
-4 -19 0
-5 -20 0
-1 -21 0
-2 -22 0
-3 -23 0
-4 -24 0
-5 -25 0
-1 -26 0
-2 -27 0
-3 -28 0
-4 -29 0
-5 -30 0
-1 -31 0
-2 -32 0
-3 -33 0
-4 -34 0
-5 -35 0
-1 -36 0
-2 -37 0
-3 -38 0
-4 -39 0
-5 -40 0
-6 -11 0
-7 -12 0
-8 -13 0
-9 -14 0
-10 -15 0
-6 -16 0
-7 -17 0
-8 -18 0
-9 -19 0
-10 -20 0
-6 -21 0
-7 -22 0
-8 -23 0
-9 -24 0
-10 -25 0
-6 -26 0
-7 -27 0
-8 -28 0
-9 -29 0
-10 -30 0
-6 -31 0
-7 -32 0
-8 -33 0
-9 -34 0
-10 -35 0
-6 -36 0
-7 -37 0
-8 -38 0
-9 -39 0
-10 -40 0
-11 -16 0
-12 -17 0
-13 -18 0
-14 -19 0
-15 -20 0
-11 -21 0
-12 -22 0
-13 -23 0
-14 -24 0
-15 -25 0
-11 -26 0
-12 -27 0
-13 -28 0
-14 -29 0
-15 -30 0
-11 -31 0
-12 -32 0
-13 -33 0
-14 -34 0
-15 -35 0
-11 -36 0
-12 -37 0
-13 -38 0
-14 -39 0
-15 -40 0
-16 -21 0
-17 -22 0
-18 -23 0
-19 -24 0
-20 -25 0
-16 -26 0
-17 -27 0
-18 -28 0
-19 -29 0
-20 -30 0
-16 -31 0
-17 -32 0
-18 -33 0
-19 -34 0
-20 -35 0
-16 -36 0
-17 -37 0
-18 -38 0
-19 -39 0
-20 -40 0
-21 -26 0
-22 -27 0
-23 -28 0
-24 -29 0
-25 -30 0
-21 -31 0
-22 -32 0
-23 -33 0
-24 -34 0
-25 -35 0
-21 -36 0
-22 -37 0
-23 -38 0
-24 -39 0
-25 -40 0
-26 -31 0
-27 -32 0
-28 -33 0
-29 -34 0
-30 -35 0
-26 -36 0
-27 -37 0
-28 -38 0
-29 -39 0
-30 -40 0
-31 -36 0
-32 -37 0
-33 -38 0
-34 -39 0
-35 -40 0
